problems/csplib-prob056/sonet-models/noch/O2/lingeling/model_2_1-s3ring14-solution000001.eprime-solution
language ESSENCE' 1.0

letting network_ExplicitWithFlagsR6_Flags be [1, 1, 1, 1, 1, 1, 1; int(1..7)]
letting network_ExplicitWithFlagsR6_Values_ExplicitVarSizeWithDummy be
        [[1, 2, 4, 13, 14; int(1..5)], [1, 9, 11, 12, 14; int(1..5)], [2, 3, 6, 7, 10; int(1..5)],
         [2, 14, 14, 14, 14; int(1..5)], [3, 5, 8, 10, 11; int(1..5)], [4, 5, 6, 7, 12; int(1..5)],
         [14, 14, 14, 14, 14; int(1..5)]; int(1..7)]
