problems/csplib-prob056/sonet-models/noch/O2/lingeling/model_2_1-s3ring14-solution000001.solution
language Essence 1.3

letting network be mset({}, {1, 2, 4, 13}, {1, 9, 11, 12}, {2}, {2, 3, 6, 7, 10}, {3, 5, 8, 10, 11}, {4, 5, 6, 7, 12})
$ Here is a simple "visualisation" for the value above.
$ 
$  1  2  4 13
$  1  9 11 12
$  2
$  2  3  6  7 10
$  3  5  8 10 11
$  4  5  6  7 12

